17	4	3
22	34	24	27	32	39	25	
0	0	0	0	0	7	4	5	3	8	1	3	2	3	4
9	7	1	6	8	8	4	1	9	4	5	3	12	13	17
10	0	0	6	6	2	4	10	8	1	10	2	6	7
9	10	4	1	7	3	6	5	4	8	6	2	5	9
10	3	0	3	8	7	8	6	2	2	2	1	17
175	5	10	8	0	8	8	5	3	10	3	2	8	17
25	3	2	5	3	3	8	6	4	6	10	1	17
100	4	7	0	10	8	7	3	8	5	4	2	10	17
100	1	9	0	8	8	7	10	3	1	7	1	17
100	0	2	6	1	9	7	4	4	8	6	2	11	17
200	10	0	0	2	6	5	3	10	7	3	1	16
225	1	8	9	5	3	10	10	9	3	5	2	15	17
3	8	5	6	0	8	1	2	1	9	7	2	14	17
2	8	2	4	7	4	7	4	3	10	4	2	15	17
1	1	0	2	2	9	8	10	3	2	7	1	17
3	10	8	8	0	8	7	2	1	6	9	1	17
0	0	0	0	0	3	9	8	2	7	1	0
